c File: flat50_3_0.col
c
c SOURCE: Joseph Culberson (joe@cs.ualberta.ca)
c DESCRIPTION: Quasi-random coloring problem
c              generated with flatness = 0
c                             probability = 0.139
c                             known coloring = 3
c                             random seed = 1448
c              Creation Date:  Tue Jun  9 12:09:36 1998
c Maximum degree = 8 Minimum degree = 1
c p edge 50 115
c cnf created by edge2cnf
p cnf 150 545
-1 -2 0
-1 -3 0
-2 -3 0
1 2 3 0
-4 -5 0
-4 -6 0
-5 -6 0
4 5 6 0
-7 -8 0
-7 -9 0
-8 -9 0
7 8 9 0
-10 -11 0
-10 -12 0
-11 -12 0
10 11 12 0
-13 -14 0
-13 -15 0
-14 -15 0
13 14 15 0
-16 -17 0
-16 -18 0
-17 -18 0
16 17 18 0
-19 -20 0
-19 -21 0
-20 -21 0
19 20 21 0
-22 -23 0
-22 -24 0
-23 -24 0
22 23 24 0
-25 -26 0
-25 -27 0
-26 -27 0
25 26 27 0
-28 -29 0
-28 -30 0
-29 -30 0
28 29 30 0
-31 -32 0
-31 -33 0
-32 -33 0
31 32 33 0
-34 -35 0
-34 -36 0
-35 -36 0
34 35 36 0
-37 -38 0
-37 -39 0
-38 -39 0
37 38 39 0
-40 -41 0
-40 -42 0
-41 -42 0
40 41 42 0
-43 -44 0
-43 -45 0
-44 -45 0
43 44 45 0
-46 -47 0
-46 -48 0
-47 -48 0
46 47 48 0
-49 -50 0
-49 -51 0
-50 -51 0
49 50 51 0
-52 -53 0
-52 -54 0
-53 -54 0
52 53 54 0
-55 -56 0
-55 -57 0
-56 -57 0
55 56 57 0
-58 -59 0
-58 -60 0
-59 -60 0
58 59 60 0
-61 -62 0
-61 -63 0
-62 -63 0
61 62 63 0
-64 -65 0
-64 -66 0
-65 -66 0
64 65 66 0
-67 -68 0
-67 -69 0
-68 -69 0
67 68 69 0
-70 -71 0
-70 -72 0
-71 -72 0
70 71 72 0
-73 -74 0
-73 -75 0
-74 -75 0
73 74 75 0
-76 -77 0
-76 -78 0
-77 -78 0
76 77 78 0
-79 -80 0
-79 -81 0
-80 -81 0
79 80 81 0
-82 -83 0
-82 -84 0
-83 -84 0
82 83 84 0
-85 -86 0
-85 -87 0
-86 -87 0
85 86 87 0
-88 -89 0
-88 -90 0
-89 -90 0
88 89 90 0
-91 -92 0
-91 -93 0
-92 -93 0
91 92 93 0
-94 -95 0
-94 -96 0
-95 -96 0
94 95 96 0
-97 -98 0
-97 -99 0
-98 -99 0
97 98 99 0
-100 -101 0
-100 -102 0
-101 -102 0
100 101 102 0
-103 -104 0
-103 -105 0
-104 -105 0
103 104 105 0
-106 -107 0
-106 -108 0
-107 -108 0
106 107 108 0
-109 -110 0
-109 -111 0
-110 -111 0
109 110 111 0
-112 -113 0
-112 -114 0
-113 -114 0
112 113 114 0
-115 -116 0
-115 -117 0
-116 -117 0
115 116 117 0
-118 -119 0
-118 -120 0
-119 -120 0
118 119 120 0
-121 -122 0
-121 -123 0
-122 -123 0
121 122 123 0
-124 -125 0
-124 -126 0
-125 -126 0
124 125 126 0
-127 -128 0
-127 -129 0
-128 -129 0
127 128 129 0
-130 -131 0
-130 -132 0
-131 -132 0
130 131 132 0
-133 -134 0
-133 -135 0
-134 -135 0
133 134 135 0
-136 -137 0
-136 -138 0
-137 -138 0
136 137 138 0
-139 -140 0
-139 -141 0
-140 -141 0
139 140 141 0
-142 -143 0
-142 -144 0
-143 -144 0
142 143 144 0
-145 -146 0
-145 -147 0
-146 -147 0
145 146 147 0
-148 -149 0
-148 -150 0
-149 -150 0
148 149 150 0
-64 -1 0
-65 -2 0
-66 -3 0
-76 -1 0
-77 -2 0
-78 -3 0
-133 -1 0
-134 -2 0
-135 -3 0
-136 -1 0
-137 -2 0
-138 -3 0
-52 -4 0
-53 -5 0
-54 -6 0
-73 -4 0
-74 -5 0
-75 -6 0
-88 -4 0
-89 -5 0
-90 -6 0
-91 -4 0
-92 -5 0
-93 -6 0
-139 -4 0
-140 -5 0
-141 -6 0
-52 -7 0
-53 -8 0
-54 -9 0
-94 -7 0
-95 -8 0
-96 -9 0
-121 -7 0
-122 -8 0
-123 -9 0
-130 -7 0
-131 -8 0
-132 -9 0
-133 -7 0
-134 -8 0
-135 -9 0
-64 -10 0
-65 -11 0
-66 -12 0
-70 -10 0
-71 -11 0
-72 -12 0
-82 -10 0
-83 -11 0
-84 -12 0
-88 -10 0
-89 -11 0
-90 -12 0
-103 -10 0
-104 -11 0
-105 -12 0
-148 -10 0
-149 -11 0
-150 -12 0
-55 -13 0
-56 -14 0
-57 -15 0
-73 -13 0
-74 -14 0
-75 -15 0
-94 -13 0
-95 -14 0
-96 -15 0
-52 -16 0
-53 -17 0
-54 -18 0
-79 -16 0
-80 -17 0
-81 -18 0
-88 -16 0
-89 -17 0
-90 -18 0
-118 -16 0
-119 -17 0
-120 -18 0
-127 -16 0
-128 -17 0
-129 -18 0
-133 -16 0
-134 -17 0
-135 -18 0
-58 -19 0
-59 -20 0
-60 -21 0
-67 -19 0
-68 -20 0
-69 -21 0
-76 -19 0
-77 -20 0
-78 -21 0
-124 -19 0
-125 -20 0
-126 -21 0
-145 -19 0
-146 -20 0
-147 -21 0
-58 -22 0
-59 -23 0
-60 -24 0
-67 -22 0
-68 -23 0
-69 -24 0
-73 -22 0
-74 -23 0
-75 -24 0
-103 -22 0
-104 -23 0
-105 -24 0
-115 -22 0
-116 -23 0
-117 -24 0
-58 -25 0
-59 -26 0
-60 -27 0
-76 -25 0
-77 -26 0
-78 -27 0
-97 -25 0
-98 -26 0
-99 -27 0
-121 -25 0
-122 -26 0
-123 -27 0
-130 -25 0
-131 -26 0
-132 -27 0
-136 -25 0
-137 -26 0
-138 -27 0
-148 -25 0
-149 -26 0
-150 -27 0
-106 -28 0
-107 -29 0
-108 -30 0
-118 -28 0
-119 -29 0
-120 -30 0
-136 -28 0
-137 -29 0
-138 -30 0
-55 -31 0
-56 -32 0
-57 -33 0
-70 -31 0
-71 -32 0
-72 -33 0
-103 -31 0
-104 -32 0
-105 -33 0
-106 -31 0
-107 -32 0
-108 -33 0
-112 -34 0
-113 -35 0
-114 -36 0
-145 -34 0
-146 -35 0
-147 -36 0
-64 -37 0
-65 -38 0
-66 -39 0
-148 -37 0
-149 -38 0
-150 -39 0
-52 -40 0
-53 -41 0
-54 -42 0
-55 -40 0
-56 -41 0
-57 -42 0
-94 -40 0
-95 -41 0
-96 -42 0
-97 -40 0
-98 -41 0
-99 -42 0
-106 -40 0
-107 -41 0
-108 -42 0
-109 -40 0
-110 -41 0
-111 -42 0
-133 -40 0
-134 -41 0
-135 -42 0
-67 -43 0
-68 -44 0
-69 -45 0
-73 -43 0
-74 -44 0
-75 -45 0
-121 -43 0
-122 -44 0
-123 -45 0
-136 -43 0
-137 -44 0
-138 -45 0
-142 -43 0
-143 -44 0
-144 -45 0
-145 -43 0
-146 -44 0
-147 -45 0
-61 -46 0
-62 -47 0
-63 -48 0
-118 -46 0
-119 -47 0
-120 -48 0
-64 -49 0
-65 -50 0
-66 -51 0
-67 -49 0
-68 -50 0
-69 -51 0
-70 -49 0
-71 -50 0
-72 -51 0
-112 -49 0
-113 -50 0
-114 -51 0
-145 -49 0
-146 -50 0
-147 -51 0
-115 -52 0
-116 -53 0
-117 -54 0
-109 -55 0
-110 -56 0
-111 -57 0
-112 -55 0
-113 -56 0
-114 -57 0
-106 -58 0
-107 -59 0
-108 -60 0
-127 -58 0
-128 -59 0
-129 -60 0
-124 -61 0
-125 -62 0
-126 -63 0
-133 -61 0
-134 -62 0
-135 -63 0
-145 -61 0
-146 -62 0
-147 -63 0
-103 -67 0
-104 -68 0
-105 -69 0
-112 -67 0
-113 -68 0
-114 -69 0
-145 -67 0
-146 -68 0
-147 -69 0
-139 -70 0
-140 -71 0
-141 -72 0
-103 -73 0
-104 -74 0
-105 -75 0
-142 -73 0
-143 -74 0
-144 -75 0
-124 -76 0
-125 -77 0
-126 -78 0
-130 -76 0
-131 -77 0
-132 -78 0
-133 -76 0
-134 -77 0
-135 -78 0
-103 -79 0
-104 -80 0
-105 -81 0
-127 -79 0
-128 -80 0
-129 -81 0
-142 -79 0
-143 -80 0
-144 -81 0
-106 -82 0
-107 -83 0
-108 -84 0
-121 -82 0
-122 -83 0
-123 -84 0
-130 -82 0
-131 -83 0
-132 -84 0
-115 -85 0
-116 -86 0
-117 -87 0
-109 -88 0
-110 -89 0
-111 -90 0
-112 -88 0
-113 -89 0
-114 -90 0
-142 -88 0
-143 -89 0
-144 -90 0
-145 -88 0
-146 -89 0
-147 -90 0
-106 -91 0
-107 -92 0
-108 -93 0
-109 -91 0
-110 -92 0
-111 -93 0
-130 -91 0
-131 -92 0
-132 -93 0
-106 -94 0
-107 -95 0
-108 -96 0
-121 -94 0
-122 -95 0
-123 -96 0
-145 -94 0
-146 -95 0
-147 -96 0
-127 -97 0
-128 -98 0
-129 -99 0
-136 -97 0
-137 -98 0
-138 -99 0
-148 -97 0
-149 -98 0
-150 -99 0
-109 -100 0
-110 -101 0
-111 -102 0
